GLPK Simplex Optimizer, v4.65
26493 rows, 255 columns, 100791 non-zeros
*     0: obj =  -0.000000000e+00 inf =   0.000e+00 (1)
Perturbing LP to avoid stalling [203]...
Removing LP perturbation [1219]...
*  1219: obj =   4.000000000e+00 inf =   9.064e-11 (0) 11
OPTIMAL LP SOLUTION FOUND
GLPK Simplex Optimizer, v4.65
26415 rows, 255 columns, 100522 non-zeros
*     0: obj =  -0.000000000e+00 inf =   0.000e+00 (1)
Perturbing LP to avoid stalling [201]...
Removing LP perturbation [1468]...
*  1468: obj =   4.500000000e+00 inf =   7.935e-11 (0) 14
OPTIMAL LP SOLUTION FOUND
G = {1: {8, 2, 5}, 2: {1, 3}, 3: {2, 4, 7}, 4: {8, 3}, 5: {1, 6}, 6: {8, 5, 7}, 7: {8, 3, 6}, 8: {1, 4, 6, 7}}
optimal fractional clique cover number 4 
 solution vector [0, 0, 1, 0, 1, 0, 0, 1, 0, 0, 0, 0, 0, 0, 0, 1, 0, 0, 0, 0] 
 solution vector mapped to the subsets {(1,): 0, (1, 2): 0, (1, 5): 1, (1, 8): 0, (2,): 1, (2, 3): 0, (3,): 0, (3, 4): 1, (3, 7): 0, (4,): 0, (4, 8): 0, (5,): 0, (5, 6): 0, (6,): 0, (6, 7): 0, (6, 7, 8): 1, (6, 8): 0, (7,): 0, (7, 8): 0, (8,): 0}
optimal shannon entropy 4 
 solution vector [1, 2, 2, 2, 2, 3, 4, 4, 4, 3, 4, 3, 3, 4, 4, 4, 3, 4, 3, 2, 3, 4, 4, 4, 3, 4, 3, 3, 4, 4, 4, 3, 4, 3, 2, 2, 3, 4, 4, 4, 3, 4, 3, 3, 4, 4, 4, 3, 4, 3, 2, 3, 4, 4, 4, 3, 4, 3, 3, 4, 4, 4, 3, 4, 3, 2, 2, 2, 3, 4, 4, 4, 3, 4, 3, 3, 4, 4, 4, 3, 4, 3, 2, 3, 4, 4, 4, 3, 4, 3, 3, 4, 4, 4, 3, 4, 3, 1, 1, 2, 3, 3, 3, 2, 3, 2, 2, 3, 3, 3, 2, 3, 2, 1, 2, 3, 3, 3, 2, 3, 2, 2, 3, 3, 3, 2, 3, 2, 1, 1, 1, 2, 3, 4, 4, 4, 3, 4, 3, 2, 3, 3, 3, 2, 3, 2, 2, 3, 4, 4, 4, 3, 4, 3, 2, 3, 3, 3, 2, 3, 2, 1, 2, 3, 4, 4, 4, 3, 4, 3, 2, 3, 3, 3, 2, 3, 2, 2, 3, 4, 4, 4, 3, 4, 3, 2, 3, 3, 3, 2, 3, 2, 1, 1, 2, 3, 4, 4, 4, 3, 4, 3, 2, 3, 3, 3, 2, 3, 2, 2, 3, 4, 4, 4, 3, 4, 3, 2, 3, 3, 3, 2, 3, 2, 0, 1, 2, 3, 3, 3, 2, 3, 2, 1, 2, 2, 2, 1, 2, 1, 1, 2, 3, 3, 3, 2, 3, 2, 1, 2, 2, 2, 1, 2, 1] 
 solution vector mapped to the subsets {(1,): 1, (1, 2): 2, (1, 2, 3): 2, (1, 2, 3, 4): 2, (1, 2, 3, 4, 5): 2, (1, 2, 3, 4, 5, 6): 3, (1, 2, 3, 4, 5, 6, 7): 4, (1, 2, 3, 4, 5, 6, 7, 8): 4, (1, 2, 3, 4, 5, 6, 8): 4, (1, 2, 3, 4, 5, 7): 3, (1, 2, 3, 4, 5, 7, 8): 4, (1, 2, 3, 4, 5, 8): 3, (1, 2, 3, 4, 6): 3, (1, 2, 3, 4, 6, 7): 4, (1, 2, 3, 4, 6, 7, 8): 4, (1, 2, 3, 4, 6, 8): 4, (1, 2, 3, 4, 7): 3, (1, 2, 3, 4, 7, 8): 4, (1, 2, 3, 4, 8): 3, (1, 2, 3, 5): 2, (1, 2, 3, 5, 6): 3, (1, 2, 3, 5, 6, 7): 4, (1, 2, 3, 5, 6, 7, 8): 4, (1, 2, 3, 5, 6, 8): 4, (1, 2, 3, 5, 7): 3, (1, 2, 3, 5, 7, 8): 4, (1, 2, 3, 5, 8): 3, (1, 2, 3, 6): 3, (1, 2, 3, 6, 7): 4, (1, 2, 3, 6, 7, 8): 4, (1, 2, 3, 6, 8): 4, (1, 2, 3, 7): 3, (1, 2, 3, 7, 8): 4, (1, 2, 3, 8): 3, (1, 2, 4): 2, (1, 2, 4, 5): 2, (1, 2, 4, 5, 6): 3, (1, 2, 4, 5, 6, 7): 4, (1, 2, 4, 5, 6, 7, 8): 4, (1, 2, 4, 5, 6, 8): 4, (1, 2, 4, 5, 7): 3, (1, 2, 4, 5, 7, 8): 4, (1, 2, 4, 5, 8): 3, (1, 2, 4, 6): 3, (1, 2, 4, 6, 7): 4, (1, 2, 4, 6, 7, 8): 4, (1, 2, 4, 6, 8): 4, (1, 2, 4, 7): 3, (1, 2, 4, 7, 8): 4, (1, 2, 4, 8): 3, (1, 2, 5): 2, (1, 2, 5, 6): 3, (1, 2, 5, 6, 7): 4, (1, 2, 5, 6, 7, 8): 4, (1, 2, 5, 6, 8): 4, (1, 2, 5, 7): 3, (1, 2, 5, 7, 8): 4, (1, 2, 5, 8): 3, (1, 2, 6): 3, (1, 2, 6, 7): 4, (1, 2, 6, 7, 8): 4, (1, 2, 6, 8): 4, (1, 2, 7): 3, (1, 2, 7, 8): 4, (1, 2, 8): 3, (1, 3): 2, (1, 3, 4): 2, (1, 3, 4, 5): 2, (1, 3, 4, 5, 6): 3, (1, 3, 4, 5, 6, 7): 4, (1, 3, 4, 5, 6, 7, 8): 4, (1, 3, 4, 5, 6, 8): 4, (1, 3, 4, 5, 7): 3, (1, 3, 4, 5, 7, 8): 4, (1, 3, 4, 5, 8): 3, (1, 3, 4, 6): 3, (1, 3, 4, 6, 7): 4, (1, 3, 4, 6, 7, 8): 4, (1, 3, 4, 6, 8): 4, (1, 3, 4, 7): 3, (1, 3, 4, 7, 8): 4, (1, 3, 4, 8): 3, (1, 3, 5): 2, (1, 3, 5, 6): 3, (1, 3, 5, 6, 7): 4, (1, 3, 5, 6, 7, 8): 4, (1, 3, 5, 6, 8): 4, (1, 3, 5, 7): 3, (1, 3, 5, 7, 8): 4, (1, 3, 5, 8): 3, (1, 3, 6): 3, (1, 3, 6, 7): 4, (1, 3, 6, 7, 8): 4, (1, 3, 6, 8): 4, (1, 3, 7): 3, (1, 3, 7, 8): 4, (1, 3, 8): 3, (1, 4): 1, (1, 4, 5): 1, (1, 4, 5, 6): 2, (1, 4, 5, 6, 7): 3, (1, 4, 5, 6, 7, 8): 3, (1, 4, 5, 6, 8): 3, (1, 4, 5, 7): 2, (1, 4, 5, 7, 8): 3, (1, 4, 5, 8): 2, (1, 4, 6): 2, (1, 4, 6, 7): 3, (1, 4, 6, 7, 8): 3, (1, 4, 6, 8): 3, (1, 4, 7): 2, (1, 4, 7, 8): 3, (1, 4, 8): 2, (1, 5): 1, (1, 5, 6): 2, (1, 5, 6, 7): 3, (1, 5, 6, 7, 8): 3, (1, 5, 6, 8): 3, (1, 5, 7): 2, (1, 5, 7, 8): 3, (1, 5, 8): 2, (1, 6): 2, (1, 6, 7): 3, (1, 6, 7, 8): 3, (1, 6, 8): 3, (1, 7): 2, (1, 7, 8): 3, (1, 8): 2, (2,): 1, (2, 3): 1, (2, 3, 4): 1, (2, 3, 4, 5): 2, (2, 3, 4, 5, 6): 3, (2, 3, 4, 5, 6, 7): 4, (2, 3, 4, 5, 6, 7, 8): 4, (2, 3, 4, 5, 6, 8): 4, (2, 3, 4, 5, 7): 3, (2, 3, 4, 5, 7, 8): 4, (2, 3, 4, 5, 8): 3, (2, 3, 4, 6): 2, (2, 3, 4, 6, 7): 3, (2, 3, 4, 6, 7, 8): 3, (2, 3, 4, 6, 8): 3, (2, 3, 4, 7): 2, (2, 3, 4, 7, 8): 3, (2, 3, 4, 8): 2, (2, 3, 5): 2, (2, 3, 5, 6): 3, (2, 3, 5, 6, 7): 4, (2, 3, 5, 6, 7, 8): 4, (2, 3, 5, 6, 8): 4, (2, 3, 5, 7): 3, (2, 3, 5, 7, 8): 4, (2, 3, 5, 8): 3, (2, 3, 6): 2, (2, 3, 6, 7): 3, (2, 3, 6, 7, 8): 3, (2, 3, 6, 8): 3, (2, 3, 7): 2, (2, 3, 7, 8): 3, (2, 3, 8): 2, (2, 4): 1, (2, 4, 5): 2, (2, 4, 5, 6): 3, (2, 4, 5, 6, 7): 4, (2, 4, 5, 6, 7, 8): 4, (2, 4, 5, 6, 8): 4, (2, 4, 5, 7): 3, (2, 4, 5, 7, 8): 4, (2, 4, 5, 8): 3, (2, 4, 6): 2, (2, 4, 6, 7): 3, (2, 4, 6, 7, 8): 3, (2, 4, 6, 8): 3, (2, 4, 7): 2, (2, 4, 7, 8): 3, (2, 4, 8): 2, (2, 5): 2, (2, 5, 6): 3, (2, 5, 6, 7): 4, (2, 5, 6, 7, 8): 4, (2, 5, 6, 8): 4, (2, 5, 7): 3, (2, 5, 7, 8): 4, (2, 5, 8): 3, (2, 6): 2, (2, 6, 7): 3, (2, 6, 7, 8): 3, (2, 6, 8): 3, (2, 7): 2, (2, 7, 8): 3, (2, 8): 2, (3,): 1, (3, 4): 1, (3, 4, 5): 2, (3, 4, 5, 6): 3, (3, 4, 5, 6, 7): 4, (3, 4, 5, 6, 7, 8): 4, (3, 4, 5, 6, 8): 4, (3, 4, 5, 7): 3, (3, 4, 5, 7, 8): 4, (3, 4, 5, 8): 3, (3, 4, 6): 2, (3, 4, 6, 7): 3, (3, 4, 6, 7, 8): 3, (3, 4, 6, 8): 3, (3, 4, 7): 2, (3, 4, 7, 8): 3, (3, 4, 8): 2, (3, 5): 2, (3, 5, 6): 3, (3, 5, 6, 7): 4, (3, 5, 6, 7, 8): 4, (3, 5, 6, 8): 4, (3, 5, 7): 3, (3, 5, 7, 8): 4, (3, 5, 8): 3, (3, 6): 2, (3, 6, 7): 3, (3, 6, 7, 8): 3, (3, 6, 8): 3, (3, 7): 2, (3, 7, 8): 3, (3, 8): 2, (4,): 0, (4, 5): 1, (4, 5, 6): 2, (4, 5, 6, 7): 3, (4, 5, 6, 7, 8): 3, (4, 5, 6, 8): 3, (4, 5, 7): 2, (4, 5, 7, 8): 3, (4, 5, 8): 2, (4, 6): 1, (4, 6, 7): 2, (4, 6, 7, 8): 2, (4, 6, 8): 2, (4, 7): 1, (4, 7, 8): 2, (4, 8): 1, (5,): 1, (5, 6): 2, (5, 6, 7): 3, (5, 6, 7, 8): 3, (5, 6, 8): 3, (5, 7): 2, (5, 7, 8): 3, (5, 8): 2, (6,): 1, (6, 7): 2, (6, 7, 8): 2, (6, 8): 2, (7,): 1, (7, 8): 2, (8,): 1}
G = {1: {8, 2, 5}, 2: {1, 3}, 3: {2, 4, 7}, 4: {8, 3, 5}, 5: {1, 4, 6}, 6: {8, 5, 7}, 7: {8, 3, 6}, 8: {1, 4, 6, 7}}
optimal fractional clique cover number 7/2 
 solution vector [0, 1/2, 1/2, 0, 0, 1/2, 0, 1/2, 0, 0, 1/2, 0, 0, 0, 0, 0, 1, 0, 0, 0, 0] 
 solution vector mapped to the subsets {(1,): 0, (1, 2): 1/2, (1, 5): 1/2, (1, 8): 0, (2,): 0, (2, 3): 1/2, (3,): 0, (3, 4): 1/2, (3, 7): 0, (4,): 0, (4, 5): 1/2, (4, 8): 0, (5,): 0, (5, 6): 0, (6,): 0, (6, 7): 0, (6, 7, 8): 1, (6, 8): 0, (7,): 0, (7, 8): 0, (8,): 0}
optimal shannon entropy 9/2 
 solution vector [1, 3/2, 2, 5/2, 5/2, 7/2, 9/2, 9/2, 9/2, 7/2, 9/2, 7/2, 7/2, 9/2, 9/2, 9/2, 7/2, 9/2, 7/2, 5/2, 7/2, 9/2, 9/2, 9/2, 7/2, 9/2, 7/2, 3, 4, 4, 4, 3, 4, 3, 5/2, 5/2, 7/2, 9/2, 9/2, 9/2, 7/2, 9/2, 7/2, 7/2, 9/2, 9/2, 9/2, 7/2, 9/2, 7/2, 2, 3, 4, 4, 4, 3, 4, 3, 5/2, 7/2, 7/2, 7/2, 5/2, 7/2, 5/2, 2, 5/2, 5/2, 7/2, 9/2, 9/2, 9/2, 7/2, 9/2, 7/2, 7/2, 9/2, 9/2, 9/2, 7/2, 9/2, 7/2, 5/2, 7/2, 9/2, 9/2, 9/2, 7/2, 9/2, 7/2, 3, 4, 4, 4, 3, 4, 3, 2, 2, 3, 4, 4, 4, 3, 4, 3, 3, 4, 4, 4, 3, 4, 3, 3/2, 5/2, 7/2, 7/2, 7/2, 5/2, 7/2, 5/2, 2, 3, 3, 3, 2, 3, 2, 1, 3/2, 2, 5/2, 7/2, 9/2, 9/2, 9/2, 7/2, 9/2, 7/2, 3, 4, 4, 4, 3, 4, 3, 5/2, 7/2, 9/2, 9/2, 9/2, 7/2, 9/2, 7/2, 5/2, 7/2, 7/2, 7/2, 5/2, 7/2, 5/2, 2, 5/2, 7/2, 9/2, 9/2, 9/2, 7/2, 9/2, 7/2, 3, 4, 4, 4, 3, 4, 3, 2, 3, 4, 4, 4, 3, 4, 3, 2, 3, 3, 3, 2, 3, 2, 1, 3/2, 2, 3, 4, 4, 4, 3, 4, 3, 5/2, 7/2, 7/2, 7/2, 5/2, 7/2, 5/2, 2, 3, 4, 4, 4, 3, 4, 3, 2, 3, 3, 3, 2, 3, 2, 1, 3/2, 5/2, 7/2, 7/2, 7/2, 5/2, 7/2, 5/2, 2, 3, 3, 3, 2, 3, 2, 1, 2, 3, 3, 3, 2, 3, 2, 1, 2, 2, 2, 1, 2, 1] 
 solution vector mapped to the subsets {(1,): 1, (1, 2): 3/2, (1, 2, 3): 2, (1, 2, 3, 4): 5/2, (1, 2, 3, 4, 5): 5/2, (1, 2, 3, 4, 5, 6): 7/2, (1, 2, 3, 4, 5, 6, 7): 9/2, (1, 2, 3, 4, 5, 6, 7, 8): 9/2, (1, 2, 3, 4, 5, 6, 8): 9/2, (1, 2, 3, 4, 5, 7): 7/2, (1, 2, 3, 4, 5, 7, 8): 9/2, (1, 2, 3, 4, 5, 8): 7/2, (1, 2, 3, 4, 6): 7/2, (1, 2, 3, 4, 6, 7): 9/2, (1, 2, 3, 4, 6, 7, 8): 9/2, (1, 2, 3, 4, 6, 8): 9/2, (1, 2, 3, 4, 7): 7/2, (1, 2, 3, 4, 7, 8): 9/2, (1, 2, 3, 4, 8): 7/2, (1, 2, 3, 5): 5/2, (1, 2, 3, 5, 6): 7/2, (1, 2, 3, 5, 6, 7): 9/2, (1, 2, 3, 5, 6, 7, 8): 9/2, (1, 2, 3, 5, 6, 8): 9/2, (1, 2, 3, 5, 7): 7/2, (1, 2, 3, 5, 7, 8): 9/2, (1, 2, 3, 5, 8): 7/2, (1, 2, 3, 6): 3, (1, 2, 3, 6, 7): 4, (1, 2, 3, 6, 7, 8): 4, (1, 2, 3, 6, 8): 4, (1, 2, 3, 7): 3, (1, 2, 3, 7, 8): 4, (1, 2, 3, 8): 3, (1, 2, 4): 5/2, (1, 2, 4, 5): 5/2, (1, 2, 4, 5, 6): 7/2, (1, 2, 4, 5, 6, 7): 9/2, (1, 2, 4, 5, 6, 7, 8): 9/2, (1, 2, 4, 5, 6, 8): 9/2, (1, 2, 4, 5, 7): 7/2, (1, 2, 4, 5, 7, 8): 9/2, (1, 2, 4, 5, 8): 7/2, (1, 2, 4, 6): 7/2, (1, 2, 4, 6, 7): 9/2, (1, 2, 4, 6, 7, 8): 9/2, (1, 2, 4, 6, 8): 9/2, (1, 2, 4, 7): 7/2, (1, 2, 4, 7, 8): 9/2, (1, 2, 4, 8): 7/2, (1, 2, 5): 2, (1, 2, 5, 6): 3, (1, 2, 5, 6, 7): 4, (1, 2, 5, 6, 7, 8): 4, (1, 2, 5, 6, 8): 4, (1, 2, 5, 7): 3, (1, 2, 5, 7, 8): 4, (1, 2, 5, 8): 3, (1, 2, 6): 5/2, (1, 2, 6, 7): 7/2, (1, 2, 6, 7, 8): 7/2, (1, 2, 6, 8): 7/2, (1, 2, 7): 5/2, (1, 2, 7, 8): 7/2, (1, 2, 8): 5/2, (1, 3): 2, (1, 3, 4): 5/2, (1, 3, 4, 5): 5/2, (1, 3, 4, 5, 6): 7/2, (1, 3, 4, 5, 6, 7): 9/2, (1, 3, 4, 5, 6, 7, 8): 9/2, (1, 3, 4, 5, 6, 8): 9/2, (1, 3, 4, 5, 7): 7/2, (1, 3, 4, 5, 7, 8): 9/2, (1, 3, 4, 5, 8): 7/2, (1, 3, 4, 6): 7/2, (1, 3, 4, 6, 7): 9/2, (1, 3, 4, 6, 7, 8): 9/2, (1, 3, 4, 6, 8): 9/2, (1, 3, 4, 7): 7/2, (1, 3, 4, 7, 8): 9/2, (1, 3, 4, 8): 7/2, (1, 3, 5): 5/2, (1, 3, 5, 6): 7/2, (1, 3, 5, 6, 7): 9/2, (1, 3, 5, 6, 7, 8): 9/2, (1, 3, 5, 6, 8): 9/2, (1, 3, 5, 7): 7/2, (1, 3, 5, 7, 8): 9/2, (1, 3, 5, 8): 7/2, (1, 3, 6): 3, (1, 3, 6, 7): 4, (1, 3, 6, 7, 8): 4, (1, 3, 6, 8): 4, (1, 3, 7): 3, (1, 3, 7, 8): 4, (1, 3, 8): 3, (1, 4): 2, (1, 4, 5): 2, (1, 4, 5, 6): 3, (1, 4, 5, 6, 7): 4, (1, 4, 5, 6, 7, 8): 4, (1, 4, 5, 6, 8): 4, (1, 4, 5, 7): 3, (1, 4, 5, 7, 8): 4, (1, 4, 5, 8): 3, (1, 4, 6): 3, (1, 4, 6, 7): 4, (1, 4, 6, 7, 8): 4, (1, 4, 6, 8): 4, (1, 4, 7): 3, (1, 4, 7, 8): 4, (1, 4, 8): 3, (1, 5): 3/2, (1, 5, 6): 5/2, (1, 5, 6, 7): 7/2, (1, 5, 6, 7, 8): 7/2, (1, 5, 6, 8): 7/2, (1, 5, 7): 5/2, (1, 5, 7, 8): 7/2, (1, 5, 8): 5/2, (1, 6): 2, (1, 6, 7): 3, (1, 6, 7, 8): 3, (1, 6, 8): 3, (1, 7): 2, (1, 7, 8): 3, (1, 8): 2, (2,): 1, (2, 3): 3/2, (2, 3, 4): 2, (2, 3, 4, 5): 5/2, (2, 3, 4, 5, 6): 7/2, (2, 3, 4, 5, 6, 7): 9/2, (2, 3, 4, 5, 6, 7, 8): 9/2, (2, 3, 4, 5, 6, 8): 9/2, (2, 3, 4, 5, 7): 7/2, (2, 3, 4, 5, 7, 8): 9/2, (2, 3, 4, 5, 8): 7/2, (2, 3, 4, 6): 3, (2, 3, 4, 6, 7): 4, (2, 3, 4, 6, 7, 8): 4, (2, 3, 4, 6, 8): 4, (2, 3, 4, 7): 3, (2, 3, 4, 7, 8): 4, (2, 3, 4, 8): 3, (2, 3, 5): 5/2, (2, 3, 5, 6): 7/2, (2, 3, 5, 6, 7): 9/2, (2, 3, 5, 6, 7, 8): 9/2, (2, 3, 5, 6, 8): 9/2, (2, 3, 5, 7): 7/2, (2, 3, 5, 7, 8): 9/2, (2, 3, 5, 8): 7/2, (2, 3, 6): 5/2, (2, 3, 6, 7): 7/2, (2, 3, 6, 7, 8): 7/2, (2, 3, 6, 8): 7/2, (2, 3, 7): 5/2, (2, 3, 7, 8): 7/2, (2, 3, 8): 5/2, (2, 4): 2, (2, 4, 5): 5/2, (2, 4, 5, 6): 7/2, (2, 4, 5, 6, 7): 9/2, (2, 4, 5, 6, 7, 8): 9/2, (2, 4, 5, 6, 8): 9/2, (2, 4, 5, 7): 7/2, (2, 4, 5, 7, 8): 9/2, (2, 4, 5, 8): 7/2, (2, 4, 6): 3, (2, 4, 6, 7): 4, (2, 4, 6, 7, 8): 4, (2, 4, 6, 8): 4, (2, 4, 7): 3, (2, 4, 7, 8): 4, (2, 4, 8): 3, (2, 5): 2, (2, 5, 6): 3, (2, 5, 6, 7): 4, (2, 5, 6, 7, 8): 4, (2, 5, 6, 8): 4, (2, 5, 7): 3, (2, 5, 7, 8): 4, (2, 5, 8): 3, (2, 6): 2, (2, 6, 7): 3, (2, 6, 7, 8): 3, (2, 6, 8): 3, (2, 7): 2, (2, 7, 8): 3, (2, 8): 2, (3,): 1, (3, 4): 3/2, (3, 4, 5): 2, (3, 4, 5, 6): 3, (3, 4, 5, 6, 7): 4, (3, 4, 5, 6, 7, 8): 4, (3, 4, 5, 6, 8): 4, (3, 4, 5, 7): 3, (3, 4, 5, 7, 8): 4, (3, 4, 5, 8): 3, (3, 4, 6): 5/2, (3, 4, 6, 7): 7/2, (3, 4, 6, 7, 8): 7/2, (3, 4, 6, 8): 7/2, (3, 4, 7): 5/2, (3, 4, 7, 8): 7/2, (3, 4, 8): 5/2, (3, 5): 2, (3, 5, 6): 3, (3, 5, 6, 7): 4, (3, 5, 6, 7, 8): 4, (3, 5, 6, 8): 4, (3, 5, 7): 3, (3, 5, 7, 8): 4, (3, 5, 8): 3, (3, 6): 2, (3, 6, 7): 3, (3, 6, 7, 8): 3, (3, 6, 8): 3, (3, 7): 2, (3, 7, 8): 3, (3, 8): 2, (4,): 1, (4, 5): 3/2, (4, 5, 6): 5/2, (4, 5, 6, 7): 7/2, (4, 5, 6, 7, 8): 7/2, (4, 5, 6, 8): 7/2, (4, 5, 7): 5/2, (4, 5, 7, 8): 7/2, (4, 5, 8): 5/2, (4, 6): 2, (4, 6, 7): 3, (4, 6, 7, 8): 3, (4, 6, 8): 3, (4, 7): 2, (4, 7, 8): 3, (4, 8): 2, (5,): 1, (5, 6): 2, (5, 6, 7): 3, (5, 6, 7, 8): 3, (5, 6, 8): 3, (5, 7): 2, (5, 7, 8): 3, (5, 8): 2, (6,): 1, (6, 7): 2, (6, 7, 8): 2, (6, 8): 2, (7,): 1, (7, 8): 2, (8,): 1}
